SumColouring/JavaBacktracker/RandomInstances/22_0.05_3.col
c File: instances/22_0.05_3.col
c
c Description: Random graph of size 22 vertices and P(0.05) of edges between any two vertices.
p col 22 231
e 3 8
e 3 20
e 4 17
e 5 16
e 6 18
e 7 16
e 8 11
e 9 18
e 13 14
e 13 22
e 15 17
e 16 17
e 17 22